c Sudoku solution
p cnf 729 0
137 0
162 0
223 0
246 0
251 0
326 0
339 0
344 0
398 0
457 0
475 0
515 0
531 0
589 0
636 0
693 0
722 0
741 0
813 0
433 0
232 0
311 0
125 0
835 0
859 0
919 0
716 0
617 0
412 0
942 0
645 0
847 0
927 0
821 0
964 0
938 0
734 0
985 0
295 0
548 0
449 0
661 0
466 0
563 0
629 0
524 0
428 0
552 0
654 0
143 0
158 0
355 0
367 0
269 0
114 0
218 0
765 0
956 0
753 0
868 0
973 0
991 0
171 0
186 0
199 0
372 0
383 0
678 0
682 0
788 0
779 0
797 0
481 0
494 0
892 0
884 0
876 0
274 0
287 0
577 0
596 0
